wcsp 50 3 251 512409557603043100
3 3 3 3 3 3 3 3 3 3 3 3 3 3 3 3 3 3 3 3 3 3 3 3 3 3 3 3 3 3 3 3 3 3 3 3 3 3 3 3 3 3 3 3 3 3 3 3 3 3
2 23 39 0 9
0 0 3
0 1 3
0 2 1
1 0 1
1 1 3
1 2 0
2 0 0
2 1 0
2 2 0
2 2 21 0 9
0 0 1
0 1 2
0 2 1
1 0 1
1 1 0
1 2 0
2 0 0
2 1 3
2 2 0
2 32 49 0 9
0 0 0
0 1 3
0 2 0
1 0 0
1 1 2
1 2 2
2 0 0
2 1 2
2 2 3
2 40 46 0 9
0 0 0
0 1 0
0 2 1
1 0 1
1 1 0
1 2 0
2 0 3
2 1 3
2 2 2
2 3 32 0 9
0 0 3
0 1 1
0 2 3
1 0 0
1 1 0
1 2 2
2 0 0
2 1 0
2 2 3
2 11 48 0 9
0 0 0
0 1 0
0 2 2
1 0 3
1 1 0
1 2 0
2 0 3
2 1 1
2 2 3
2 28 30 0 9
0 0 2
0 1 0
0 2 0
1 0 1
1 1 3
1 2 0
2 0 0
2 1 3
2 2 3
2 4 46 0 9
0 0 0
0 1 0
0 2 0
1 0 3
1 1 3
1 2 2
2 0 1
2 1 0
2 2 1
2 0 18 0 9
0 0 0
0 1 1
0 2 0
1 0 1
1 1 3
1 2 2
2 0 0
2 1 0
2 2 2
2 14 37 0 9
0 0 1
0 1 1
0 2 0
1 0 2
1 1 3
1 2 0
2 0 0
2 1 1
2 2 0
2 31 39 0 9
0 0 3
0 1 0
0 2 3
1 0 0
1 1 0
1 2 3
2 0 1
2 1 0
2 2 3
2 27 29 0 9
0 0 0
0 1 0
0 2 2
1 0 3
1 1 0
1 2 1
2 0 3
2 1 1
2 2 0
2 7 25 0 9
0 0 2
0 1 2
0 2 1
1 0 3
1 1 0
1 2 0
2 0 0
2 1 1
2 2 0
2 1 39 0 9
0 0 0
0 1 2
0 2 0
1 0 0
1 1 3
1 2 0
2 0 1
2 1 1
2 2 2
2 28 44 0 9
0 0 0
0 1 0
0 2 2
1 0 0
1 1 3
1 2 2
2 0 1
2 1 3
2 2 0
2 13 48 0 9
0 0 1
0 1 0
0 2 0
1 0 0
1 1 1
1 2 1
2 0 1
2 1 2
2 2 0
2 13 14 0 9
0 0 0
0 1 1
0 2 2
1 0 1
1 1 1
1 2 0
2 0 0
2 1 1
2 2 0
2 6 20 0 9
0 0 0
0 1 0
0 2 1
1 0 3
1 1 0
1 2 0
2 0 1
2 1 2
2 2 1
2 12 32 0 9
0 0 1
0 1 0
0 2 0
1 0 2
1 1 0
1 2 0
2 0 2
2 1 3
2 2 1
2 3 35 0 9
0 0 0
0 1 1
0 2 0
1 0 2
1 1 3
1 2 1
2 0 0
2 1 0
2 2 1
2 10 39 0 9
0 0 3
0 1 0
0 2 1
1 0 0
1 1 3
1 2 0
2 0 1
2 1 0
2 2 3
2 35 43 0 9
0 0 0
0 1 3
0 2 0
1 0 3
1 1 0
1 2 0
2 0 2
2 1 2
2 2 2
2 40 43 0 9
0 0 1
0 1 3
0 2 0
1 0 1
1 1 0
1 2 2
2 0 2
2 1 0
2 2 0
2 29 36 0 9
0 0 0
0 1 2
0 2 0
1 0 1
1 1 1
1 2 0
2 0 0
2 1 1
2 2 3
2 1 30 0 9
0 0 2
0 1 2
0 2 0
1 0 0
1 1 1
1 2 1
2 0 0
2 1 0
2 2 1
2 13 44 0 9
0 0 2
0 1 1
0 2 1
1 0 3
1 1 0
1 2 0
2 0 1
2 1 0
2 2 0
2 32 35 0 9
0 0 0
0 1 2
0 2 1
1 0 1
1 1 0
1 2 3
2 0 0
2 1 0
2 2 2
2 0 25 0 9
0 0 2
0 1 0
0 2 0
1 0 2
1 1 3
1 2 0
2 0 1
2 1 0
2 2 2
2 31 48 0 9
0 0 0
0 1 1
0 2 1
1 0 1
1 1 0
1 2 2
2 0 3
2 1 0
2 2 0
2 26 39 0 9
0 0 3
0 1 2
0 2 3
1 0 0
1 1 2
1 2 2
2 0 0
2 1 0
2 2 0
2 6 24 0 9
0 0 2
0 1 1
0 2 2
1 0 0
1 1 3
1 2 3
2 0 0
2 1 0
2 2 0
2 24 35 0 9
0 0 0
0 1 3
0 2 0
1 0 2
1 1 3
1 2 3
2 0 0
2 1 0
2 2 2
2 32 42 0 9
0 0 0
0 1 1
0 2 1
1 0 0
1 1 0
1 2 2
2 0 3
2 1 0
2 2 3
2 23 28 0 9
0 0 0
0 1 1
0 2 3
1 0 1
1 1 0
1 2 2
2 0 0
2 1 1
2 2 0
2 15 42 0 9
0 0 0
0 1 3
0 2 2
1 0 2
1 1 0
1 2 3
2 0 0
2 1 0
2 2 1
2 9 10 0 9
0 0 0
0 1 0
0 2 0
1 0 0
1 1 2
1 2 2
2 0 2
2 1 3
2 2 3
2 40 42 0 9
0 0 2
0 1 2
0 2 0
1 0 0
1 1 0
1 2 3
2 0 3
2 1 3
2 2 0
2 37 41 0 9
0 0 0
0 1 1
0 2 1
1 0 3
1 1 2
1 2 0
2 0 0
2 1 0
2 2 3
2 41 43 0 9
0 0 1
0 1 0
0 2 2
1 0 0
1 1 2
1 2 0
2 0 0
2 1 1
2 2 3
2 7 22 0 9
0 0 1
0 1 3
0 2 2
1 0 2
1 1 1
1 2 0
2 0 0
2 1 0
2 2 0
2 26 31 0 9
0 0 1
0 1 0
0 2 1
1 0 2
1 1 0
1 2 2
2 0 3
2 1 0
2 2 0
2 6 18 0 9
0 0 0
0 1 2
0 2 3
1 0 3
1 1 1
1 2 0
2 0 1
2 1 0
2 2 0
2 20 36 0 9
0 0 1
0 1 0
0 2 0
1 0 2
1 1 3
1 2 3
2 0 0
2 1 0
2 2 1
2 8 41 0 9
0 0 0
0 1 3
0 2 0
1 0 2
1 1 0
1 2 2
2 0 3
2 1 0
2 2 2
2 28 43 0 9
0 0 0
0 1 2
0 2 0
1 0 3
1 1 0
1 2 2
2 0 3
2 1 2
2 2 0
2 12 29 0 9
0 0 1
0 1 0
0 2 3
1 0 0
1 1 0
1 2 2
2 0 0
2 1 1
2 2 3
2 16 41 0 9
0 0 0
0 1 0
0 2 1
1 0 0
1 1 1
1 2 2
2 0 0
2 1 2
2 2 1
2 2 13 0 9
0 0 0
0 1 1
0 2 0
1 0 1
1 1 2
1 2 2
2 0 0
2 1 1
2 2 0
2 26 47 0 9
0 0 0
0 1 1
0 2 0
1 0 0
1 1 0
1 2 3
2 0 1
2 1 2
2 2 2
2 24 38 0 9
0 0 1
0 1 0
0 2 1
1 0 0
1 1 0
1 2 2
2 0 0
2 1 2
2 2 2
2 3 28 0 9
0 0 0
0 1 3
0 2 0
1 0 1
1 1 2
1 2 2
2 0 0
2 1 3
2 2 0
2 16 21 0 9
0 0 0
0 1 1
0 2 1
1 0 0
1 1 1
1 2 1
2 0 0
2 1 1
2 2 0
2 15 16 0 9
0 0 1
0 1 0
0 2 0
1 0 0
1 1 1
1 2 0
2 0 3
2 1 2
2 2 3
2 15 21 0 9
0 0 1
0 1 2
0 2 0
1 0 2
1 1 3
1 2 0
2 0 3
2 1 0
2 2 0
2 2 39 0 9
0 0 2
0 1 3
0 2 1
1 0 0
1 1 0
1 2 0
2 0 0
2 1 1
2 2 1
2 11 19 0 9
0 0 3
0 1 2
0 2 0
1 0 0
1 1 0
1 2 0
2 0 1
2 1 1
2 2 3
2 9 39 0 9
0 0 2
0 1 0
0 2 3
1 0 2
1 1 2
1 2 0
2 0 0
2 1 2
2 2 0
2 8 33 0 9
0 0 2
0 1 1
0 2 0
1 0 2
1 1 0
1 2 0
2 0 3
2 1 0
2 2 3
2 21 34 0 9
0 0 0
0 1 2
0 2 0
1 0 0
1 1 3
1 2 1
2 0 0
2 1 1
2 2 2
2 0 16 0 9
0 0 2
0 1 0
0 2 0
1 0 0
1 1 1
1 2 2
2 0 1
2 1 1
2 2 0
2 4 25 0 9
0 0 3
0 1 0
0 2 0
1 0 0
1 1 3
1 2 1
2 0 3
2 1 2
2 2 0
2 2 3 0 9
0 0 0
0 1 3
0 2 1
1 0 0
1 1 0
1 2 2
2 0 1
2 1 3
2 2 0
2 18 30 0 9
0 0 0
0 1 3
0 2 0
1 0 0
1 1 0
1 2 3
2 0 1
2 1 3
2 2 2
2 26 41 0 9
0 0 0
0 1 3
0 2 0
1 0 2
1 1 1
1 2 0
2 0 0
2 1 1
2 2 1
2 0 5 0 9
0 0 2
0 1 0
0 2 0
1 0 1
1 1 0
1 2 3
2 0 0
2 1 2
2 2 2
2 43 49 0 9
0 0 0
0 1 1
0 2 2
1 0 1
1 1 0
1 2 3
2 0 3
2 1 0
2 2 0
2 0 20 0 9
0 0 0
0 1 0
0 2 0
1 0 3
1 1 3
1 2 3
2 0 0
2 1 1
2 2 3
2 4 29 0 9
0 0 0
0 1 0
0 2 3
1 0 0
1 1 1
1 2 3
2 0 3
2 1 1
2 2 0
2 7 24 0 9
0 0 2
0 1 0
0 2 0
1 0 2
1 1 2
1 2 0
2 0 1
2 1 2
2 2 0
2 0 30 0 9
0 0 0
0 1 1
0 2 0
1 0 2
1 1 0
1 2 2
2 0 0
2 1 2
2 2 1
2 19 31 0 9
0 0 0
0 1 2
0 2 2
1 0 1
1 1 0
1 2 0
2 0 0
2 1 1
2 2 2
2 45 46 0 9
0 0 0
0 1 0
0 2 3
1 0 1
1 1 0
1 2 3
2 0 1
2 1 3
2 2 0
2 9 27 0 9
0 0 2
0 1 1
0 2 0
1 0 2
1 1 0
1 2 0
2 0 1
2 1 1
2 2 0
2 7 10 0 9
0 0 2
0 1 3
0 2 0
1 0 0
1 1 3
1 2 0
2 0 1
2 1 0
2 2 3
2 2 7 0 9
0 0 1
0 1 0
0 2 1
1 0 0
1 1 2
1 2 1
2 0 3
2 1 0
2 2 0
2 31 38 0 9
0 0 3
0 1 1
0 2 0
1 0 0
1 1 1
1 2 2
2 0 1
2 1 0
2 2 0
2 31 35 0 9
0 0 0
0 1 2
0 2 0
1 0 1
1 1 1
1 2 1
2 0 0
2 1 0
2 2 2
2 43 48 0 9
0 0 0
0 1 0
0 2 1
1 0 0
1 1 1
1 2 3
2 0 1
2 1 1
2 2 0
2 4 11 0 9
0 0 0
0 1 0
0 2 3
1 0 0
1 1 2
1 2 2
2 0 2
2 1 1
2 2 0
2 14 16 0 9
0 0 3
0 1 0
0 2 1
1 0 0
1 1 3
1 2 3
2 0 0
2 1 3
2 2 0
2 21 42 0 9
0 0 0
0 1 1
0 2 2
1 0 3
1 1 2
1 2 0
2 0 3
2 1 0
2 2 0
2 8 35 0 9
0 0 0
0 1 2
0 2 0
1 0 1
1 1 1
1 2 3
2 0 0
2 1 0
2 2 2
2 6 17 0 9
0 0 2
0 1 0
0 2 0
1 0 1
1 1 3
1 2 0
2 0 0
2 1 3
2 2 2
2 43 44 0 9
0 0 1
0 1 3
0 2 0
1 0 0
1 1 2
1 2 0
2 0 0
2 1 3
2 2 1
2 20 23 0 9
0 0 3
0 1 2
0 2 0
1 0 1
1 1 1
1 2 0
2 0 0
2 1 0
2 2 1
2 38 43 0 9
0 0 0
0 1 0
0 2 0
1 0 2
1 1 0
1 2 3
2 0 3
2 1 3
2 2 3
2 13 40 0 9
0 0 3
0 1 0
0 2 0
1 0 3
1 1 1
1 2 1
2 0 1
2 1 0
2 2 0
2 16 35 0 9
0 0 2
0 1 0
0 2 0
1 0 0
1 1 0
1 2 3
2 0 2
2 1 1
2 2 3
2 8 39 0 9
0 0 0
0 1 0
0 2 0
1 0 2
1 1 3
1 2 0
2 0 1
2 1 1
2 2 3
2 28 46 0 9
0 0 2
0 1 2
0 2 0
1 0 1
1 1 0
1 2 1
2 0 1
2 1 0
2 2 0
2 25 41 0 9
0 0 3
0 1 1
0 2 0
1 0 0
1 1 1
1 2 3
2 0 3
2 1 0
2 2 0
2 0 19 0 9
0 0 3
0 1 3
0 2 0
1 0 0
1 1 3
1 2 3
2 0 0
2 1 0
2 2 1
2 24 43 0 9
0 0 1
0 1 1
0 2 0
1 0 3
1 1 0
1 2 3
2 0 3
2 1 0
2 2 0
2 12 43 0 9
0 0 0
0 1 0
0 2 2
1 0 1
1 1 0
1 2 1
2 0 3
2 1 0
2 2 1
2 40 44 0 9
0 0 1
0 1 1
0 2 3
1 0 0
1 1 2
1 2 0
2 0 0
2 1 0
2 2 3
2 17 37 0 9
0 0 2
0 1 3
0 2 3
1 0 0
1 1 3
1 2 1
2 0 0
2 1 0
2 2 0
2 15 36 0 9
0 0 3
0 1 1
0 2 2
1 0 2
1 1 0
1 2 0
2 0 3
2 1 0
2 2 0
2 1 4 0 9
0 0 2
0 1 1
0 2 3
1 0 0
1 1 0
1 2 0
2 0 0
2 1 2
2 2 3
2 4 40 0 9
0 0 0
0 1 3
0 2 2
1 0 0
1 1 1
1 2 2
2 0 0
2 1 1
2 2 0
2 27 31 0 9
0 0 3
0 1 0
0 2 0
1 0 1
1 1 0
1 2 3
2 0 0
2 1 1
2 2 3
2 21 38 0 9
0 0 0
0 1 1
0 2 0
1 0 3
1 1 3
1 2 3
2 0 0
2 1 0
2 2 1
2 9 15 0 9
0 0 0
0 1 1
0 2 2
1 0 0
1 1 0
1 2 0
2 0 3
2 1 2
2 2 3
2 22 24 0 9
0 0 1
0 1 2
0 2 0
1 0 2
1 1 1
1 2 0
2 0 3
2 1 0
2 2 0
2 11 31 0 9
0 0 2
0 1 1
0 2 0
1 0 1
1 1 0
1 2 0
2 0 1
2 1 1
2 2 0
2 29 42 0 9
0 0 1
0 1 3
0 2 0
1 0 1
1 1 2
1 2 0
2 0 0
2 1 2
2 2 0
2 6 26 0 9
0 0 0
0 1 0
0 2 3
1 0 1
1 1 2
1 2 0
2 0 3
2 1 0
2 2 2
2 14 34 0 9
0 0 0
0 1 0
0 2 3
1 0 0
1 1 1
1 2 1
2 0 2
2 1 2
2 2 0
2 14 30 0 9
0 0 3
0 1 1
0 2 0
1 0 1
1 1 3
1 2 1
2 0 0
2 1 0
2 2 0
2 25 26 0 9
0 0 1
0 1 2
0 2 0
1 0 1
1 1 2
1 2 2
2 0 0
2 1 0
2 2 0
2 9 21 0 9
0 0 3
0 1 3
0 2 3
1 0 0
1 1 0
1 2 1
2 0 0
2 1 0
2 2 3
2 7 42 0 9
0 0 2
0 1 0
0 2 2
1 0 0
1 1 1
1 2 1
2 0 0
2 1 3
2 2 0
2 37 45 0 9
0 0 2
0 1 0
0 2 3
1 0 0
1 1 0
1 2 1
2 0 1
2 1 0
2 2 2
2 9 26 0 9
0 0 1
0 1 3
0 2 0
1 0 2
1 1 0
1 2 0
2 0 0
2 1 1
2 2 1
2 10 24 0 9
0 0 3
0 1 3
0 2 0
1 0 0
1 1 0
1 2 1
2 0 0
2 1 3
2 2 1
2 5 25 0 9
0 0 0
0 1 0
0 2 0
1 0 1
1 1 0
1 2 2
2 0 3
2 1 1
2 2 3
2 3 41 0 9
0 0 2
0 1 1
0 2 2
1 0 3
1 1 0
1 2 0
2 0 0
2 1 1
2 2 0
2 10 32 0 9
0 0 3
0 1 0
0 2 0
1 0 3
1 1 3
1 2 2
2 0 0
2 1 2
2 2 0
2 26 35 0 9
0 0 0
0 1 3
0 2 3
1 0 0
1 1 1
1 2 0
2 0 2
2 1 1
2 2 0
2 20 45 0 9
0 0 1
0 1 2
0 2 0
1 0 0
1 1 0
1 2 0
2 0 1
2 1 1
2 2 2
2 2 40 0 9
0 0 3
0 1 3
0 2 0
1 0 0
1 1 0
1 2 2
2 0 0
2 1 1
2 2 1
2 15 31 0 9
0 0 3
0 1 0
0 2 0
1 0 2
1 1 0
1 2 3
2 0 0
2 1 3
2 2 1
2 18 42 0 9
0 0 0
0 1 0
0 2 0
1 0 1
1 1 3
1 2 2
2 0 3
2 1 2
2 2 0
2 38 41 0 9
0 0 3
0 1 0
0 2 0
1 0 0
1 1 0
1 2 2
2 0 2
2 1 2
2 2 1
2 12 19 0 9
0 0 0
0 1 2
0 2 0
1 0 0
1 1 3
1 2 1
2 0 0
2 1 1
2 2 3
2 5 36 0 9
0 0 0
0 1 2
0 2 0
1 0 0
1 1 3
1 2 3
2 0 0
2 1 1
2 2 3
2 5 30 0 9
0 0 0
0 1 2
0 2 0
1 0 0
1 1 2
1 2 2
2 0 3
2 1 0
2 2 2
2 20 31 0 9
0 0 0
0 1 3
0 2 2
1 0 3
1 1 0
1 2 0
2 0 2
2 1 1
2 2 0
2 6 15 0 9
0 0 0
0 1 0
0 2 1
1 0 0
1 1 2
1 2 3
2 0 1
2 1 0
2 2 1
2 9 31 0 9
0 0 0
0 1 0
0 2 1
1 0 2
1 1 0
1 2 3
2 0 3
2 1 3
2 2 0
2 13 41 0 9
0 0 3
0 1 0
0 2 0
1 0 3
1 1 2
1 2 3
2 0 3
2 1 0
2 2 0
2 30 48 0 9
0 0 1
0 1 0
0 2 2
1 0 0
1 1 3
1 2 3
2 0 1
2 1 0
2 2 0
2 37 44 0 9
0 0 0
0 1 0
0 2 1
1 0 0
1 1 3
1 2 1
2 0 3
2 1 2
2 2 0
2 2 44 0 9
0 0 0
0 1 2
0 2 0
1 0 1
1 1 0
1 2 1
2 0 2
2 1 0
2 2 2
2 0 23 0 9
0 0 0
0 1 0
0 2 3
1 0 2
1 1 0
1 2 2
2 0 3
2 1 1
2 2 0
2 12 26 0 9
0 0 3
0 1 0
0 2 3
1 0 0
1 1 2
1 2 0
2 0 3
2 1 0
2 2 2
2 12 31 0 9
0 0 0
0 1 0
0 2 2
1 0 3
1 1 3
1 2 1
2 0 0
2 1 0
2 2 3
2 8 36 0 9
0 0 2
0 1 0
0 2 0
1 0 3
1 1 0
1 2 3
2 0 0
2 1 2
2 2 2
2 14 44 0 9
0 0 0
0 1 3
0 2 3
1 0 0
1 1 0
1 2 3
2 0 3
2 1 0
2 2 1
2 4 33 0 9
0 0 3
0 1 0
0 2 3
1 0 2
1 1 1
1 2 0
2 0 1
2 1 0
2 2 0
2 5 39 0 9
0 0 0
0 1 3
0 2 3
1 0 0
1 1 1
1 2 1
2 0 0
2 1 0
2 2 1
2 20 21 0 9
0 0 1
0 1 1
0 2 3
1 0 0
1 1 0
1 2 3
2 0 0
2 1 2
2 2 0
2 29 35 0 9
0 0 0
0 1 0
0 2 2
1 0 1
1 1 0
1 2 1
2 0 0
2 1 3
2 2 1
2 15 49 0 9
0 0 0
0 1 2
0 2 2
1 0 0
1 1 3
1 2 1
2 0 3
2 1 0
2 2 0
2 0 29 0 9
0 0 2
0 1 0
0 2 3
1 0 0
1 1 2
1 2 0
2 0 2
2 1 2
2 2 0
2 14 31 0 9
0 0 0
0 1 0
0 2 0
1 0 0
1 1 1
1 2 2
2 0 3
2 1 2
2 2 3
2 0 17 0 9
0 0 1
0 1 2
0 2 0
1 0 1
1 1 1
1 2 0
2 0 3
2 1 0
2 2 0
2 16 29 0 9
0 0 0
0 1 1
0 2 1
1 0 0
1 1 3
1 2 0
2 0 3
2 1 0
2 2 1
2 16 30 0 9
0 0 0
0 1 2
0 2 2
1 0 0
1 1 0
1 2 3
2 0 0
2 1 2
2 2 2
2 23 48 0 9
0 0 2
0 1 0
0 2 1
1 0 2
1 1 0
1 2 2
2 0 0
2 1 3
2 2 0
2 12 17 0 9
0 0 1
0 1 0
0 2 0
1 0 3
1 1 3
1 2 3
2 0 0
2 1 2
2 2 0
2 34 44 0 9
0 0 0
0 1 0
0 2 2
1 0 0
1 1 1
1 2 2
2 0 3
2 1 2
2 2 0
2 33 34 0 9
0 0 2
0 1 1
0 2 2
1 0 0
1 1 0
1 2 2
2 0 0
2 1 3
2 2 0
2 6 36 0 9
0 0 1
0 1 1
0 2 0
1 0 2
1 1 3
1 2 0
2 0 3
2 1 0
2 2 0
2 19 26 0 9
0 0 0
0 1 0
0 2 0
1 0 3
1 1 3
1 2 0
2 0 1
2 1 2
2 2 1
2 16 22 0 9
0 0 0
0 1 0
0 2 1
1 0 2
1 1 0
1 2 0
2 0 1
2 1 2
2 2 2
2 10 18 0 9
0 0 1
0 1 0
0 2 1
1 0 0
1 1 0
1 2 0
2 0 2
2 1 2
2 2 3
2 9 42 0 9
0 0 1
0 1 2
0 2 2
1 0 1
1 1 0
1 2 0
2 0 2
2 1 0
2 2 0
2 6 29 0 9
0 0 3
0 1 3
0 2 3
1 0 0
1 1 0
1 2 2
2 0 0
2 1 0
2 2 2
2 12 21 0 9
0 0 2
0 1 0
0 2 0
1 0 0
1 1 2
1 2 0
2 0 1
2 1 2
2 2 2
2 34 43 0 9
0 0 2
0 1 2
0 2 0
1 0 1
1 1 3
1 2 0
2 0 3
2 1 0
2 2 0
2 11 29 0 9
0 0 0
0 1 0
0 2 2
1 0 1
1 1 2
1 2 0
2 0 1
2 1 0
2 2 2
2 24 29 0 9
0 0 3
0 1 0
0 2 1
1 0 0
1 1 3
1 2 0
2 0 1
2 1 0
2 2 3
2 10 47 0 9
0 0 0
0 1 0
0 2 0
1 0 1
1 1 1
1 2 3
2 0 2
2 1 1
2 2 0
2 42 46 0 9
0 0 0
0 1 0
0 2 0
1 0 0
1 1 2
1 2 1
2 0 2
2 1 2
2 2 1
2 24 37 0 9
0 0 0
0 1 0
0 2 0
1 0 3
1 1 3
1 2 2
2 0 2
2 1 1
2 2 0
2 1 29 0 9
0 0 0
0 1 0
0 2 1
1 0 0
1 1 1
1 2 3
2 0 1
2 1 2
2 2 0
2 3 8 0 9
0 0 0
0 1 3
0 2 0
1 0 3
1 1 2
1 2 0
2 0 1
2 1 2
2 2 0
2 42 43 0 9
0 0 2
0 1 0
0 2 3
1 0 0
1 1 2
1 2 3
2 0 0
2 1 1
2 2 0
2 5 29 0 9
0 0 1
0 1 0
0 2 1
1 0 0
1 1 0
1 2 0
2 0 2
2 1 3
2 2 2
2 0 43 0 9
0 0 2
0 1 0
0 2 1
1 0 0
1 1 0
1 2 3
2 0 0
2 1 1
2 2 2
2 2 37 0 9
0 0 0
0 1 0
0 2 0
1 0 1
1 1 3
1 2 3
2 0 1
2 1 0
2 2 2
2 26 30 0 9
0 0 0
0 1 3
0 2 1
1 0 1
1 1 0
1 2 2
2 0 0
2 1 0
2 2 2
2 13 27 0 9
0 0 0
0 1 2
0 2 2
1 0 0
1 1 3
1 2 0
2 0 0
2 1 1
2 2 1
2 4 31 0 9
0 0 3
0 1 0
0 2 2
1 0 0
1 1 2
1 2 1
2 0 2
2 1 0
2 2 0
2 25 43 0 9
0 0 2
0 1 1
0 2 3
1 0 0
1 1 0
1 2 0
2 0 1
2 1 0
2 2 1
2 7 20 0 9
0 0 1
0 1 2
0 2 0
1 0 3
1 1 0
1 2 0
2 0 3
2 1 0
2 2 1
2 33 39 0 9
0 0 0
0 1 0
0 2 0
1 0 2
1 1 0
1 2 1
2 0 3
2 1 1
2 2 3
2 5 8 0 9
0 0 3
0 1 0
0 2 1
1 0 1
1 1 0
1 2 2
2 0 2
2 1 0
2 2 0
2 5 20 0 9
0 0 2
0 1 3
0 2 2
1 0 0
1 1 0
1 2 0
2 0 1
2 1 1
2 2 0
2 9 29 0 9
0 0 2
0 1 3
0 2 0
1 0 2
1 1 1
1 2 1
2 0 0
2 1 0
2 2 0
2 31 34 0 9
0 0 1
0 1 1
0 2 0
1 0 3
1 1 2
1 2 0
2 0 0
2 1 1
2 2 0
2 15 22 0 9
0 0 0
0 1 2
0 2 2
1 0 0
1 1 0
1 2 3
2 0 0
2 1 3
2 2 2
2 30 49 0 9
0 0 1
0 1 0
0 2 0
1 0 3
1 1 2
1 2 0
2 0 3
2 1 3
2 2 0
2 24 45 0 9
0 0 0
0 1 3
0 2 0
1 0 0
1 1 3
1 2 3
2 0 3
2 1 0
2 2 2
2 3 37 0 9
0 0 0
0 1 0
0 2 0
1 0 2
1 1 2
1 2 0
2 0 1
2 1 2
2 2 1
2 2 35 0 9
0 0 1
0 1 0
0 2 0
1 0 2
1 1 3
1 2 2
2 0 3
2 1 0
2 2 0
2 18 23 0 9
0 0 0
0 1 1
0 2 1
1 0 0
1 1 1
1 2 0
2 0 3
2 1 0
2 2 3
2 10 20 0 9
0 0 2
0 1 3
0 2 2
1 0 0
1 1 0
1 2 1
2 0 0
2 1 0
2 2 1
2 12 23 0 9
0 0 1
0 1 1
0 2 0
1 0 1
1 1 0
1 2 1
2 0 0
2 1 0
2 2 3
2 5 26 0 9
0 0 1
0 1 3
0 2 0
1 0 3
1 1 0
1 2 3
2 0 1
2 1 0
2 2 0
2 20 33 0 9
0 0 3
0 1 2
0 2 3
1 0 0
1 1 0
1 2 0
2 0 0
2 1 2
2 2 1
2 4 43 0 9
0 0 0
0 1 3
0 2 1
1 0 1
1 1 3
1 2 0
2 0 0
2 1 0
2 2 2
2 29 49 0 9
0 0 0
0 1 2
0 2 1
1 0 0
1 1 3
1 2 2
2 0 0
2 1 1
2 2 0
2 5 19 0 9
0 0 2
0 1 0
0 2 0
1 0 0
1 1 1
1 2 3
2 0 3
2 1 3
2 2 0
2 0 4 0 9
0 0 0
0 1 3
0 2 2
1 0 0
1 1 2
1 2 1
2 0 0
2 1 0
2 2 3
2 9 12 0 9
0 0 0
0 1 0
0 2 1
1 0 2
1 1 2
1 2 0
2 0 0
2 1 1
2 2 3
2 14 24 0 9
0 0 0
0 1 3
0 2 2
1 0 3
1 1 1
1 2 1
2 0 0
2 1 0
2 2 0
2 16 46 0 9
0 0 0
0 1 0
0 2 1
1 0 2
1 1 0
1 2 1
2 0 1
2 1 0
2 2 3
2 7 15 0 9
0 0 1
0 1 0
0 2 3
1 0 3
1 1 3
1 2 2
2 0 0
2 1 0
2 2 0
2 4 12 0 9
0 0 3
0 1 0
0 2 0
1 0 1
1 1 2
1 2 2
2 0 0
2 1 0
2 2 1
1 0 512409557603043100 3
0 2
1 0
2 1
1 1 512409557603043100 3
0 0
1 3
2 0
1 2 512409557603043100 3
0 0
1 1
2 1
1 3 512409557603043100 3
0 0
1 2
2 0
1 4 512409557603043100 3
0 1
1 0
2 1
1 5 512409557603043100 3
0 2
1 2
2 0
1 6 512409557603043100 3
0 1
1 0
2 3
1 7 512409557603043100 3
0 2
1 0
2 2
1 8 512409557603043100 3
0 1
1 0
2 1
1 9 512409557603043100 3
0 3
1 2
2 0
1 10 512409557603043100 3
0 1
1 0
2 0
1 11 512409557603043100 3
0 2
1 0
2 1
1 12 512409557603043100 3
0 0
1 1
2 2
1 13 512409557603043100 3
0 2
1 0
2 1
1 14 512409557603043100 3
0 0
1 1
2 3
1 15 512409557603043100 3
0 3
1 0
2 2
1 16 512409557603043100 3
0 2
1 0
2 0
1 17 512409557603043100 3
0 1
1 1
2 0
1 18 512409557603043100 3
0 2
1 0
2 2
1 19 512409557603043100 3
0 0
1 2
2 1
1 20 512409557603043100 3
0 1
1 0
2 1
1 21 512409557603043100 3
0 3
1 2
2 0
1 22 512409557603043100 3
0 2
1 2
2 0
1 23 512409557603043100 3
0 1
1 1
2 0
1 24 512409557603043100 3
0 3
1 0
2 2
1 25 512409557603043100 3
0 1
1 0
2 1
1 26 512409557603043100 3
0 0
1 1
2 3
1 27 512409557603043100 3
0 2
1 0
2 1
1 28 512409557603043100 3
0 0
1 0
2 1
1 29 512409557603043100 3
0 2
1 1
2 0
1 30 512409557603043100 3
0 1
1 2
2 0
1 31 512409557603043100 3
0 0
1 1
2 0
1 32 512409557603043100 3
0 2
1 0
2 3
1 33 512409557603043100 3
0 1
1 0
2 3
1 34 512409557603043100 3
0 0
1 2
2 1
1 35 512409557603043100 3
0 0
1 2
2 2
1 36 512409557603043100 3
0 0
1 0
2 0
1 37 512409557603043100 3
0 0
1 0
2 0
1 38 512409557603043100 3
0 1
1 0
2 2
1 39 512409557603043100 3
0 0
1 0
2 0
1 40 512409557603043100 3
0 0
1 0
2 0
1 41 512409557603043100 3
0 0
1 2
2 3
1 42 512409557603043100 3
0 1
1 0
2 2
1 43 512409557603043100 3
0 0
1 3
2 3
1 44 512409557603043100 3
0 0
1 0
2 0
1 45 512409557603043100 3
0 0
1 1
2 1
1 46 512409557603043100 3
0 1
1 0
2 1
1 47 512409557603043100 3
0 1
1 0
2 2
1 48 512409557603043100 3
0 1
1 0
2 1
1 49 512409557603043100 3
0 1
1 0
2 1
0 35 0
